99 100
36 17 1
26 18 1
54 63 1
64 72 1
26 38 1
32 29 1
50 40 1
76 88 1
28 20 1
49 1 1
8 27 1
49 17 1
41 13 1
27 90 1
27 27 1
34 6 1
16 78 1
18 31 2
57 87 1
30 8 1
3 90 1
20 38 1
1 10 1
38 21 1
50 63 1
34 7 1
5 45 1
8 46 1
11 4 1
9 38 1
70 91 1
39 32 1
33 6 1
98 30 1
48 99 1
32 30 1
66 69 1
45 34 1
37 78 1
86 90 1
11 44 1
6 49 1
88 99 1
3 12 1
28 27 1
1 42 1
31 45 1
37 30 1
12 16 1
25 46 1
79 39 1
77 40 1
7 16 1
11 12 1
22 46 1
57 61 1
14 28 1
9 40 1
35 14 1
12 45 1
33 2 1
18 85 1
72 44 1
27 94 1
14 38 1
39 30 1
46 35 1
3 47 1
6 35 1
21 43 1
93 88 1
42 16 1
9 44 1
15 17 1
67 3 1
42 97 1
25 15 1
21 67 1
25 30 1
4 38 1
2 47 1
39 1 1
8 18 1
77 91 1
41 41 1
18 10 1
2 17 1
74 7 1
91 97 1
9 31 1
71 29 1
9 34 1
53 63 1
11 14 1
76 51 1
17 22 1
27 43 1
75 57 1
6 37 1
100 100 
100 100 
100 100 
100 100 
100 100 
100 100 
100 100 
100 100 
100 100 
100 100 
100 100 
100 100 
100 100 
100 100 
100 100 
100 100 
100 100 
100 100 
100 100 
100 100 
100 100 
100 100 
100 100 
100 100 
100 100 
100 100 
100 100 
100 100 
100 100 
100 100 
100 100 
100 100 
100 100 
100 100 
100 100 
100 100 
100 100 
100 100 
100 100 
100 100 
100 100 
100 100 
100 100 
100 100 
100 100 
100 100 
100 100 
100 100 
100 100 
100 100 
100 100 
100 100 
100 100 
100 100 
100 100 
100 100 
100 100 
100 100 
100 100 
100 100 
100 100 
100 100 
100 100 
100 100 
100 100 
100 100 
100 100 
100 100 
100 100 
100 100 
100 100 
100 100 
100 100 
100 100 
100 100 
100 100 
100 100 
100 100 
100 100 
100 100 
100 100 
100 100 
100 100 
100 100 
100 100 
100 100 
100 100 
100 100 
100 100 
100 100 
100 100 
100 100 
100 100 
100 100 
100 100 
100 100 
100 100 
100 100 
100 100 
100 100 
100 100 
